
Gurobi 11.0.3 (linux64) logging started Tue Apr 14 02:55:45 2026

Set parameter LogFile to value "tree/results/wine/wine_depth-2_run-1/Full MIP/LogFile_FullModel.txt"
Gurobi Optimizer version 11.0.3 build v11.0.3rc0 (linux64 - "CentOS Linux 7 (Core)")

CPU model: Intel(R) Xeon(R) Platinum 8260 CPU @ 2.40GHz, instruction set [SSE2|AVX|AVX2|AVX512]
Thread count: 96 physical cores, 192 logical processors, using up to 32 threads

Optimize a model with 3921 rows, 3337 columns and 50673 nonzeros
Model fingerprint: 0x6c901445
Model has 532 general constraints
Variable types: 1690 continuous, 1647 integer (1647 binary)
Coefficient statistics:
  Matrix range     [4e-03, 1e+04]
  Objective range  [8e-03, 1e+04]
  Bounds range     [1e-01, 4e+02]
  RHS range        [1e-04, 8e+02]

User MIP start produced solution with objective -999.075 (0.01s)
Loaded user MIP start with objective -999.075

Presolve added 528 rows and 1064 columns
Presolve time: 0.04s
Presolved: 4449 rows, 4401 columns, 52813 nonzeros
Presolved model has 1064 SOS constraint(s)
Variable types: 1690 continuous, 2711 integer (2711 binary)

Root relaxation: objective 1.000000e+00, 2039 iterations, 0.48 seconds (0.64 work units)

    Nodes    |    Current Node    |     Objective Bounds      |     Work
 Expl Unexpl |  Obj  Depth IntInf | Incumbent    BestBd   Gap | It/Node Time

     0     0    1.00000    0  328 -999.07519    1.00000   100%     -    1s
     0     2    1.00000    0  328 -999.07519    1.00000   100%     -    1s
    31    64    1.00000    5  366 -999.07519    1.00000   100%   446    6s
    95   128    1.00000    6  360 -999.07519    1.00000   100%   186   10s
H  120   128                       0.9323308    1.00000  7.26%   158   10s
   159   192    1.00000    7  363    0.93233    1.00000  7.26%   134   21s
H  164   192                       0.9398496    1.00000  6.40%   131   21s
   223   257    1.00000    8  358    0.93985    1.00000  6.40%   197   61s
   484  1069    1.00000   11  324    0.93985    1.00000  6.40%   297   72s
  1068  3965    1.00000   20  359    0.93985    1.00000  6.40%   237   85s
  3964  4632    1.00000   60  298    0.93985    1.00000  6.40%   199  112s
H 4111  4632                       0.9473684    1.00000  5.56%   197  112s
  4633  7423    1.00000   71  291    0.94737    1.00000  5.56%   191  195s
  7448 10224    1.00000  121  449    0.94737    1.00000  5.56%   165  296s
H 8623 10224                       0.9548872    1.00000  4.72%   154  296s
 10303 16001    1.00000  170  400    0.95489    1.00000  4.72%   145  388s
 16203 16002    1.00000   27    9    0.95489    1.00000  4.72%   122  393s
 16206 16004    1.00000   61    4    0.95489    1.00000  4.72%   122  398s
 16213 16018    1.00000   15  389    0.95489    1.00000  4.72%   122  400s
 16397 16164    1.00000   20  397    0.95489    1.00000  4.72%   122  410s
 16429 16186    1.00000   20  412    0.95489    1.00000  4.72%   123  423s
 16525 16250    1.00000   22  338    0.95489    1.00000  4.72%   123  510s
H16539 15444                       0.9699248    1.00000  3.10%   124  510s
 17099 16797    1.00000   32  331    0.96992    1.00000  3.10%   127  517s
 18097 16516    1.00000   53  371    0.96992    1.00000  3.10%   131  604s
H18098 15755                       0.9774436    1.00000  2.31%   131  604s
H18127 15024                       0.9849624    1.00000  1.53%   131  604s
 18148 17618    1.00000   53  371    0.98496    1.00000  1.53%   131  687s
 20749 19854    1.00000   92  425    0.98496    1.00000  1.53%   134  772s
H22408 18615                       0.9924812    1.00000  0.76%   132  772s
 23852 22159    1.00000  133  442    0.99248    1.00000  0.76%   131  856s
 27884 21919    1.00000  182  393    0.99248    1.00000  0.76%   123  957s
 29010 25468    1.00000  200  375    0.99248    1.00000  0.76%   121  988s
H29126 13919                       1.0000000    1.00000  0.00%   121  988s

Explored 32954 nodes (3873437 simplex iterations) in 988.66 seconds (1188.15 work units)
Thread count was 32 (of 192 available processors)

Solution count 10: 1 0.992481 0.984962 ... -999.075

Optimal solution found (tolerance 1.00e-04)
Best objective 1.000000000000e+00, best bound 1.000000000000e+00, gap 0.0000%

User-callback calls 748093, time in user-callback 6.48 sec
